NAME: tsp_354
COMMENT: Random TSP instance
TYPE: TSP
DIMENSION: 50
EDGE_WEIGHT_TYPE: EUC_2D
NODE_COORD_SECTION
1 459 988
2 481 70
3 665 610
4 196 476
5 982 279
6 761 246
7 440 484
8 666 200
9 987 968
10 143 915
11 936 952
12 831 321
13 508 572
14 718 0
15 457 506
16 558 894
17 787 131
18 234 644
19 835 213
20 727 592
21 580 792
22 472 353
23 389 153
24 716 878
25 752 38
26 709 66
27 621 780
28 997 284
29 122 668
30 921 822
31 23 219
32 111 340
33 269 679
34 965 701
35 978 473
36 163 318
37 158 78
38 837 221
39 181 924
40 982 677
41 950 790
42 837 720
43 669 193
44 359 700
45 298 886
46 357 357
47 123 545
48 476 54
49 548 431
50 1000 273
